(set-info :smt-lib-version 2.6)
(set-logic QF_UFLRA)
(set-info :source |
MathSat group

|)
(set-info :category "random")
(set-info :status sat)
(declare-fun x0 () Real)
(declare-fun x1 () Real)
(declare-fun x2 () Real)
(declare-fun x3 () Real)
(declare-fun x4 () Real)
(declare-fun x5 () Real)
(declare-fun x6 () Real)
(declare-fun x7 () Real)
(declare-fun x8 () Real)
(declare-fun x9 () Real)
(declare-fun x10 () Real)
(declare-fun x11 () Real)
(declare-fun x12 () Real)
(declare-fun x13 () Real)
(declare-fun x14 () Real)
(declare-fun x15 () Real)
(declare-fun x16 () Real)
(declare-fun x17 () Real)
(declare-fun x18 () Real)
(declare-fun x19 () Real)
(declare-fun x20 () Real)
(declare-fun x21 () Real)
(declare-fun x22 () Real)
(declare-fun x23 () Real)
(declare-fun x24 () Real)
(declare-fun x25 () Real)
(declare-fun x26 () Real)
(declare-fun x27 () Real)
(declare-fun x28 () Real)
(declare-fun x29 () Real)
(declare-fun x30 () Real)
(declare-fun x31 () Real)
(declare-fun x32 () Real)
(declare-fun x33 () Real)
(declare-fun x34 () Real)
(declare-fun x35 () Real)
(declare-fun x36 () Real)
(declare-fun x37 () Real)
(declare-fun x38 () Real)
(declare-fun x39 () Real)
(declare-fun x40 () Real)
(declare-fun x41 () Real)
(declare-fun x42 () Real)
(declare-fun x43 () Real)
(declare-fun x44 () Real)
(declare-fun x45 () Real)
(declare-fun x46 () Real)
(declare-fun x47 () Real)
(declare-fun x48 () Real)
(declare-fun x49 () Real)
(declare-fun f0_1 (Real) Real)
(declare-fun f0_2 (Real Real) Real)
(declare-fun f0_3 (Real Real Real) Real)
(declare-fun f0_4 (Real Real Real Real) Real)
(declare-fun P0 () Bool)
(declare-fun P1 () Bool)
(declare-fun P2 () Bool)
(declare-fun P3 () Bool)
(declare-fun P4 () Bool)
(declare-fun P5 () Bool)
(declare-fun P6 () Bool)
(declare-fun P7 () Bool)
(declare-fun P8 () Bool)
(declare-fun P9 () Bool)
(declare-fun P10 () Bool)
(declare-fun P11 () Bool)
(declare-fun P12 () Bool)
(declare-fun P13 () Bool)
(declare-fun P14 () Bool)
(declare-fun P15 () Bool)
(declare-fun P16 () Bool)
(declare-fun P17 () Bool)
(declare-fun P18 () Bool)
(declare-fun P19 () Bool)
(declare-fun P20 () Bool)
(declare-fun P21 () Bool)
(declare-fun P22 () Bool)
(declare-fun P23 () Bool)
(declare-fun P24 () Bool)
(declare-fun P25 () Bool)
(declare-fun P26 () Bool)
(declare-fun P27 () Bool)
(declare-fun P28 () Bool)
(declare-fun P29 () Bool)
(declare-fun P30 () Bool)
(declare-fun P31 () Bool)
(declare-fun P32 () Bool)
(declare-fun P33 () Bool)
(declare-fun P34 () Bool)
(declare-fun P35 () Bool)
(declare-fun P36 () Bool)
(declare-fun P37 () Bool)
(declare-fun P38 () Bool)
(declare-fun P39 () Bool)
(declare-fun P40 () Bool)
(declare-fun P41 () Bool)
(declare-fun P42 () Bool)
(declare-fun P43 () Bool)
(declare-fun P44 () Bool)
(declare-fun P45 () Bool)
(declare-fun P46 () Bool)
(declare-fun P47 () Bool)
(declare-fun P48 () Bool)
(declare-fun P49 () Bool)
(assert (let ((?v_59 (* 10 x17))) (let ((?v_161 (distinct (- (- (* 11 x36) (* 11 x42)) ?v_59) 29)) (?v_138 (* 17 x4))) (let ((?v_195 (< (- (- ?v_138 (* 9 x33)) (* 14 x39)) 23)) (?v_140 (* 24 x16)) (?v_119 (<= (- (+ (* 18 x40) (* 11 x20)) (* 3 x45)) 6)) (?v_71 (* 8 x17))) (let ((?v_225 (<= (- (- (* 23 x13) ?v_140) (* 16 x3)) 9)) (?v_113 (< (- (- (* 4 x37) (* 7 x1)) (* 13 x14)) 17)) (?v_105 (< (- (+ (* 20 x43) (* 5 x30)) (* 9 x17)) 8)) (?v_12 (< (+ (- (* 23 x6) (* 25 x32)) (* 26 x26)) 10)) (?v_66 (f0_1 x44))) (let ((?v_224 (= x40 ?v_66)) (?v_68 (distinct (f0_2 x33 x37) ?v_66)) (?v_5 (= x36 (f0_2 x13 x38))) (?v_79 (f0_1 x34))) (let ((?v_134 (= x29 ?v_79)) (?v_93 (distinct (f0_2 x28 x18) x23)) (?v_55 (= (f0_1 x19) (f0_2 x10 x19))) (?v_27 (distinct (f0_2 x37 x19) (f0_2 x5 x37))) (?v_124 (= x39 x46)) (?v_193 (= (f0_2 x45 x26) (f0_2 x43 x39))) (?v_3 (f0_1 x10))) (let ((?v_232 (distinct (f0_1 x43) ?v_3)) (?v_72 (= (f0_2 x20 x22) (f0_1 x17))) (?v_179 (= ?v_79 x12)) (?v_222 (= x18 (f0_1 x22))) (?v_108 (= x13 (f0_1 x20))) (?v_82 (distinct x11 x17)) (?v_106 (distinct (f0_1 x3) (f0_2 x14 x48))) (?v_10 (= x38 (f0_2 x48 x39))) (?v_15 (distinct x3 (f0_1 x9))) (?v_181 (f0_1 x5))) (let ((?v_188 (distinct ?v_181 (f0_1 x30))) (?v_44 (= (f0_2 x35 x48) (f0_1 x28))) (?v_42 (f0_1 x6))) (let ((?v_69 (distinct x31 ?v_42)) (?v_103 (= (f0_2 x6 x30) (f0_2 x17 x15))) (?v_101 (= (f0_1 x37) ?v_42)) (?v_111 (f0_1 x32))) (let ((?v_118 (= ?v_111 x39)) (?v_23 (distinct (f0_1 x45) x2)) (?v_176 (= (f0_2 x38 x18) ?v_42)) (?v_90 (= ?v_3 x26)) (?v_129 (f0_1 x15))) (let ((?v_87 (= ?v_3 ?v_129)) (?v_98 (distinct (f0_1 x16) x45)) (?v_33 (distinct (f0_2 x43 x18) (f0_2 x22 x22))) (?v_19 (distinct (f0_2 x38 x25) (f0_2 x3 x4))) (?v_26 (distinct (f0_1 x0) (f0_2 x39 x42))) (?v_76 (= (f0_1 x4) (f0_2 x3 x8))) (?v_60 (distinct (f0_2 x17 x32) x32)) (?v_62 (= x19 (f0_2 x22 x37))) (?v_6 (distinct (f0_1 x48) ?v_111)) (?v_13 (= ?v_181 (f0_1 x14))) (?v_154 (distinct (f0_1 x39) x30)) (?v_7 (= (f0_1 x12) x26)) (?v_151 (distinct x37 (f0_2 x34 x17))) (?v_84 (= (f0_2 x9 x3) x49)) (?v_49 (distinct x16 x1)) (?v_70 (= (f0_2 x29 x12) (f0_2 x48 x3))) (?v_80 (distinct (f0_2 x2 x8) (f0_2 x4 x27))) (?v_137 (distinct ?v_129 x25)) (?v_117 (distinct (f0_1 x41) x23)) (?v_43 (distinct ?v_3 (f0_1 x46))) (?v_14 (distinct (f0_2 x4 x29) x42)) (?v_8 (distinct x1 (f0_2 x36 x19))) (?v_77 (= (f0_2 x36 x42) (f0_2 x6 x12))) (?v_145 (not P16)) (?v_16 (not P29)) (?v_147 (not ?v_113)) (?v_53 (not P37))) (let ((?v_20 (not ?v_8)) (?v_0 (not P46)) (?v_85 (not ?v_15)) (?v_166 (not P38)) (?v_1 (not P23)) (?v_35 (not P28)) (?v_25 (not ?v_87)) (?v_88 (not ?v_7)) (?v_128 (not P11)) (?v_81 (not ?v_5)) (?v_50 (not ?v_6)) (?v_34 (not P19)) (?v_115 (not ?v_108)) (?v_168 (not P1)) (?v_250 (not P17)) (?v_56 (not ?v_26)) (?v_74 (not P36)) (?v_58 (not P40)) (?v_139 (not ?v_134)) (?v_206 (not ?v_13)) (?v_102 (not P2)) (?v_30 (not ?v_14)) (?v_17 (not ?v_117)) (?v_54 (not P35)) (?v_167 (not P47)) (?v_122 (not P24)) (?v_96 (not P18)) (?v_130 (not ?v_43)) (?v_143 (not ?v_84)) (?v_153 (not P15)) (?v_171 (not ?v_224)) (?v_64 (not ?v_19)) (?v_48 (not ?v_44)) (?v_234 (not ?v_80)) (?v_135 (not P12)) (?v_132 (not ?v_103)) (?v_244 (not ?v_161)) (?v_141 (not ?v_60)) (?v_152 (not ?v_62)) (?v_107 (not ?v_154)) (?v_65 (not ?v_93)) (?v_158 (not P9)) (?v_86 (not ?v_68)) (?v_177 (not ?v_72)) (?v_123 (not ?v_55)) (?v_146 (not ?v_119)) (?v_239 (not ?v_179)) (?v_162 (not P14)) (?v_228 (not ?v_12)) (?v_156 (not ?v_90)) (?v_126 (not P41)) (?v_114 (not P25)) (?v_207 (not ?v_105)) (?v_133 (not P30)) (?v_116 (not ?v_106)) (?v_220 (not P49)) (?v_221 (not P45)) (?v_214 (not P4)) (?v_247 (not ?v_118)) (?v_148 (not P48)) (?v_157 (not P42)) (?v_189 (not P13)) (?v_174 (not ?v_49)) (?v_187 (not P27)) (?v_149 (not ?v_82)) (?v_236 (not ?v_151)) (?v_169 (not ?v_76)) (?v_164 (not ?v_77)) (?v_180 (not P26)) (?v_197 (not P8)) (?v_155 (not P20)) (?v_183 (not P5)) (?v_159 (not P33)) (?v_198 (not P44)) (?v_231 (not P32)) (?v_163 (not P34)) (?v_182 (not P39)) (?v_199 (not P43)) (?v_204 (not P6)) (?v_209 (not P3)) (?v_178 (not ?v_69)) (?v_227 (not P21)) (?v_226 (not ?v_27)) (?v_185 (not P22)) (?v_201 (not ?v_176)) (?v_237 (not ?v_195)) (?v_229 (not P10)) (?v_256 (not ?v_193)) (?v_243 (not ?v_98)) (?v_215 (not ?v_10)) (?v_249 (not ?v_70)) (?v_230 (not ?v_225)) (?v_253 (not ?v_33)) (?v_235 (not P31)) (?v_246 (not ?v_222)) (?v_251 (not ?v_23)) (?v_254 (not ?v_137)) (?v_248 (not P7)) (?v_255 (not ?v_188)) (?v_18 (distinct (+ (* 27 x12) (* 20 x33)) 0)) (?v_78 (< (+ (* 5 x6) (* 27 x19) (* 3 x38)) 6)) (?v_47 (<= (- (- (* 21 x49) 0) (* 6 x27)) 9))) (let ((?v_92 (not ?v_47)) (?v_36 (= (+ (- 0 x31) (* 6 x1)) 25))) (let ((?v_67 (not ?v_36)) (?v_83 (not ?v_18)) (?v_203 (not ?v_78)) (?v_160 (< 0 10))) (let ((?v_240 (not ?v_160)) (?v_4 (<= (- (- (* 16 x48) (* 14 x40)) (* 23 x4)) (- 9)))) (let ((?v_109 (not ?v_4)) (?v_21 (< (+ (- (* (- 1) x37) (* 14 x6)) (* 18 x37)) 14)) (?v_29 (<= (- (- (* (- 12) x20) (* 6 x37)) (* 22 x32)) 2)) (?v_2 (<= (+ (* (- 22) x21) (* 18 x48) ?v_140) (- 23))) (?v_57 (< (+ (- (* 26 x0) (* 2 x24)) (* 5 x25)) (- 19))) (?v_11 (distinct (- (+ (* (- 17) x13) (* 22 x46)) 0) 22)) (?v_32 (= (+ (* (- 11) x30) (* 10 x41) (* 19 x26)) (- 19)))) (let ((?v_89 (not ?v_32)) (?v_110 (= (- (- (* (- 12) x44) (* 3 x17)) 0) 22))) (let ((?v_31 (not ?v_110)) (?v_9 (<= (- (+ (* (- 5) x16) (* 14 x30)) (* 27 x26)) 11)) (?v_213 (not ?v_2)) (?v_45 (<= (+ (- 0 ?v_59) (* 2 x30)) (- 18)))) (let ((?v_100 (not ?v_45)) (?v_241 (<= (- (+ (* (- 10) x34) x8) 0) 9))) (let ((?v_121 (not ?v_241)) (?v_191 (not ?v_9)) (?v_37 (<= (- (- (* 2 x27) (* 5 x20)) (* 5 x24)) (- 13)))) (let ((?v_144 (not ?v_37)) (?v_63 (= (- (* 11 x41) (* 4 x39)) (- 24)))) (let ((?v_40 (not ?v_63)) (?v_22 (<= (- (- (* (- 1) x8) (* 12 x30)) (* 13 x38)) 18)) (?v_73 (not ?v_11)) (?v_94 (<= (+ (* 5 x11) (* 26 x41)) (- 11))) (?v_41 (distinct (+ (* (- 21) x14) (* 20 x49) (* 21 x25)) 2)) (?v_91 (<= (- (+ (* (- 4) x27) (* 6 x21)) (* 14 x42)) (- 26))) (?v_39 (distinct (- (- (* 15 x46) (* 7 x16)) (* 4 x35)) (- 9))) (?v_99 (< (+ (* 8 x22) (* 22 x8)) (- 5)))) (let ((?v_28 (not ?v_99)) (?v_38 (distinct (+ (* 7 x48) (* 24 x34) (* 17 x29)) (- 22))) (?v_150 (<= (+ (- (* (- 24) x36) (* 20 x47)) (* 14 x47)) 3)) (?v_46 (not ?v_21)) (?v_104 (< (- (+ (* (- 24) x43) (* 17 x7)) 0) (- 25))) (?v_24 (<= (- (+ (* (- 12) x4) ?v_138) (* 22 x38)) 21))) (let ((?v_165 (not ?v_24)) (?v_51 (not ?v_29)) (?v_127 (distinct (- (+ (* (- 23) x25) (* 13 x35)) (* 16 x28)) (- 14))) (?v_75 (not ?v_39)) (?v_202 (not ?v_41)) (?v_61 (<= (+ (- (* (- 24) x45) (* 5 x10)) (* 24 x32)) (- 21)))) (let ((?v_210 (not ?v_61)) (?v_52 (< (- (+ (* 18 x16) ?v_71) (* 3 x44)) (- 25)))) (let ((?v_190 (not ?v_52)) (?v_223 (<= (- (+ (* 12 x14) (* 14 x1)) x22) (- 11)))) (let ((?v_186 (not ?v_223)) (?v_192 (not ?v_57)) (?v_97 (< (+ (- (* 9 x32) (* 10 x33)) (* 8 x49)) (- 17)))) (let ((?v_200 (not ?v_97)) (?v_112 (< (- (- (* (- 6) x26) (* 13 x45)) 0) 10))) (let ((?v_120 (not ?v_112)) (?v_125 (< (+ (* 16 x34) (* 25 x38) ?v_71) (- 14))) (?v_233 (<= (- (+ (* (- 23) x14) (* 6 x28)) (* 5 x36)) 22))) (let ((?v_211 (not ?v_233)) (?v_170 (= (- (- (* 7 x12) 0) (* 20 x2)) (- 22))) (?v_131 (< (- (+ (* (- 24) x12) (* 24 x11)) (* 6 x32)) (- 9))) (?v_95 (not ?v_91)) (?v_205 (not ?v_94)) (?v_142 (<= (+ (- (* (- 5) x44) 0) (* 4 x20)) (- 29))) (?v_175 (<= (+ (* (- 1) x36) (* 15 x36) (* 20 x42)) (- 18))) (?v_136 (not ?v_104)) (?v_173 (<= (+ (- (* (- 6) x44) (* 19 x47)) (* 16 x9)) (- 22)))) (let ((?v_245 (not ?v_173)) (?v_212 (not ?v_125)) (?v_252 (not ?v_150)) (?v_194 (not ?v_22)) (?v_172 (not ?v_142)) (?v_218 (not ?v_38)) (?v_196 (< (- (- (* (- 17) x29) x7) (* 19 x7)) (- 9)))) (let ((?v_217 (not ?v_196)) (?v_184 (not ?v_170)) (?v_208 (not ?v_175)) (?v_216 (not ?v_127)) (?v_219 (< (- (- (* (- 20) x12) (* 12 x16)) (* 24 x1)) 14))) (let ((?v_242 (not ?v_219)) (?v_238 (not ?v_131))) (and (and (and (and (and (and (and (and (and (and (and (and (and (and (and (and (and (and (and (and (and (and (and (and (and (and (and (and (and (and (and (and (and (and (and (and (and (and (and (and (and (and (and (and (and (and (and (and (and (and (and (and (and (and (and (and (and (and (and (and (and (and (and (and (and (and (and (and (and (and (and (and (and (and (and (and (and (and (and (and (and (and (and (and (and (and (and (and (and (and (and (and (and (and (and (and (and (and (and (and (and (and (and (and (and (and (and (and (and (and (and (and (and (and (and (and (and (and (and (and (and (and (and (and (and (and (and (and (and (and (and (and (and (and (and (and (and (and (and (and (and (and (and (and (and (and (and (and (and (and (and (and (and (and (and (and (and (and (and (and (and (and (and (and (and (and (and (and (and (and (and (and (and (and (and (and (and (and (and (and (and (and (and (and (and (and (and (and (and (and (and (and (and (and (and (and (and (and (and (and (and (and (and (and (and (and (and (and (and (and (and (and (and (and (and (and (and (and (and (and (and (and (and (and (and (and (and (and (and (and (and (and (and (and (and (and (and (and (and (and (and (and (and (and (and (and (and (and (and (and (and (and (and (and (and (and (and (and (and (and (and (and (and (and (and (and (and (and (and (and (and (and (and (and (and (and (and (and (and (and (and (and (and (and (and (and (and (and (and (and (and (and (and (and (and (and (and (and (and (and (and (and (and (and (and (and (and (and (and (and (and (and (and (and (and (and (and (and (and (and (and (and (and (and (and (and (and (and (and (and (and (and (and (and (and (and (and (and (and (and (and (and (and (and (and (and (and (and (and (and (and (and (and (and (and (and (and (and (and (and (and (and (and (and (and (and (and (and (and (and (and (and (and (and (and (and (and (and (and (and (and (and (and (and (and (and (and (and (and (and (and (and (and (and (and (and (and (and (and (and (and (and (and (and (and (and (and (and (and (and (and (and (and (and (and (and (and (and (and (and (and (and (and (and (and (and (and (and (and (and (and (and (and (and (and (and (and (and (and (and (and (and (and (and (and (and (and (and (and (and (and (and (and (and (and (and (and (and (and (and (and (and (and (and (and (and (and (and (and (and (and (and (and (and (and (and (and (and (and (and (and (and (and (and (and (and (and (and (and (and (and (and (and (and (and (and (and (and (and (and (and (and (and (and (and (and (and (and (and (and (and (and (and (and (and (and (and (and (and (and (and (and (and (and (and (and (and (and (and (and (and (and (and (and (and (and (and (and (and (and (and (and (and (and (and (and (and (and (and (and (and (and (and (and (and (and (and (and (and (and (and (and (and (and (and (and (and (and (and (and (and (and (and (and (and (and (and (and (and (and (and (and (and (and (and (and (and (and (and (and (and (and (and (and (and (and (and (and (and (or (or ?v_12 ?v_145) ?v_16) (or (or ?v_109 ?v_147) ?v_21)) (or (or P0 ?v_53) ?v_20)) (or (or ?v_0 ?v_0) ?v_85)) (or (or ?v_222 ?v_6) ?v_14)) (or (or ?v_29 ?v_166) ?v_10)) (or (or ?v_33 ?v_23) (not P0))) (or (or ?v_1 P18) ?v_2)) (or (or P19 ?v_27) ?v_35)) (or (or ?v_1 P12) ?v_5)) (or (or ?v_57 ?v_2) ?v_25)) (or (or ?v_11 ?v_88) ?v_89)) (or (or ?v_90 ?v_69) P31)) (or (or ?v_31 ?v_18) ?v_9)) (or (or ?v_4 ?v_128) P20)) (or (or ?v_81 ?v_19) ?v_50)) (or (or ?v_34 ?v_213) ?v_100)) (or (or ?v_7 ?v_8) ?v_121)) (or (or ?v_115 P5) ?v_191)) (or (or ?v_144 ?v_13) ?v_10)) (or (or ?v_40 P24) ?v_168)) (or (or ?v_250 ?v_22) ?v_70)) (or (or ?v_11 ?v_6) ?v_12)) (or (or P10 P26) ?v_56)) (or (or P43 ?v_73) ?v_74)) (or (or ?v_62 P47) ?v_94)) (or (or ?v_4 ?v_58) ?v_41)) (or (or ?v_4 ?v_139) ?v_78)) (or (or ?v_91 ?v_206) ?v_39)) (or (or P48 ?v_98) P35)) (or (or P0 ?v_102) ?v_13)) (or (or ?v_28 ?v_30) P45)) (or (or ?v_38 ?v_82) ?v_106)) (or (or ?v_9 ?v_15) ?v_49)) (or (or ?v_150 ?v_17) P30)) (or (or ?v_16 ?v_12) ?v_17)) (or (or ?v_18 ?v_19) ?v_20)) (or (or ?v_46 P20) ?v_22)) (or (or ?v_104 ?v_92) ?v_54)) (or (or ?v_23 ?v_67) ?v_24)) (or (or ?v_11 P5) ?v_165)) (or (or ?v_19 ?v_25) P31)) (or (or ?v_44 ?v_26) ?v_167)) (or (or ?v_27 ?v_28) ?v_76)) (or (or ?v_72 ?v_51) ?v_2)) (or (or ?v_30 ?v_31) P18)) (or (or ?v_122 ?v_32) ?v_33)) (or (or ?v_34 ?v_35) ?v_36)) (or (or ?v_19 ?v_28) ?v_37)) (or (or ?v_25 ?v_96) P12)) (or (or ?v_38 ?v_127) ?v_75)) (or (or ?v_26 ?v_40) P5)) (or (or ?v_43 ?v_202) ?v_176)) (or (or ?v_5 ?v_130) P37)) (or (or ?v_44 ?v_5) ?v_143)) (or (or ?v_153 ?v_171) ?v_210)) (or (or P48 P4) ?v_83)) (or (or ?v_64 ?v_48) ?v_45)) (or (or ?v_52 ?v_46) ?v_47)) (or (or ?v_48 ?v_49) ?v_7)) (or (or P15 ?v_28) ?v_50)) (or (or ?v_51 P46) ?v_234)) (or (or ?v_190 ?v_186) ?v_135)) (or (or ?v_55 ?v_53) ?v_54)) (or (or ?v_19 ?v_55) P49)) (or (or P0 ?v_132) ?v_56)) (or (or ?v_192 P44) ?v_23)) (or (or ?v_200 ?v_58) ?v_244)) (or (or ?v_17 ?v_141) ?v_29)) (or (or ?v_60 ?v_24) ?v_61)) (or (or ?v_152 ?v_107) ?v_63)) (or (or ?v_64 P33) ?v_51)) (or (or ?v_65 P6) ?v_101)) (or (or ?v_120 ?v_65) ?v_158)) (or (or ?v_86 P33) ?v_67)) (or (or ?v_68 ?v_69) ?v_70)) (or (or ?v_125 ?v_177) ?v_123)) (or (or ?v_73 ?v_74) ?v_65)) (or (or ?v_5 ?v_77) ?v_75)) (or (or ?v_211 ?v_76) ?v_146)) (or (or ?v_77 ?v_24) ?v_105)) (or (or ?v_203 ?v_239) ?v_162)) (or (or ?v_170 ?v_80) ?v_11)) (or (or ?v_41 ?v_81) ?v_131)) (or (or ?v_82 ?v_83) ?v_228)) (or (or P21 P17) ?v_49)) (or (or ?v_84 ?v_85) ?v_86)) (or (or ?v_87 ?v_58) ?v_88)) (or (or ?v_89 ?v_54) P26)) (or (or ?v_156 ?v_95) P25)) (or (or P49 P46) ?v_92)) (or (or ?v_93 ?v_60) ?v_205)) (or (or ?v_95 P23) ?v_30)) (or (or ?v_69 ?v_96) ?v_16)) (or (or ?v_73 ?v_94) ?v_126)) (or (or ?v_97 ?v_38) P19)) (or (or ?v_74 P17) ?v_9)) (or (or ?v_56 ?v_21) ?v_98)) (or (or ?v_142 P34) ?v_99)) (or (or P37 ?v_100) P26)) (or (or ?v_74 ?v_39) ?v_101)) (or (or ?v_1 ?v_193) ?v_102)) (or (or ?v_18 ?v_175) ?v_103)) (or (or ?v_114 P11) ?v_89)) (or (or P42 P28) P6)) (or (or ?v_21 ?v_136) ?v_105)) (or (or ?v_207 ?v_133) ?v_58)) (or (or ?v_116 ?v_17) ?v_107)) (or (or ?v_108 ?v_43) ?v_12)) (or (or P24 ?v_19) P39)) (or (or ?v_109 ?v_110) ?v_160)) (or (or ?v_62 ?v_94) ?v_118)) (or (or P2 ?v_112) ?v_113)) (or (or P24 ?v_114) ?v_115)) (or (or ?v_36 ?v_116) ?v_220)) (or (or ?v_221 ?v_80) ?v_9)) (or (or P37 ?v_214) P34)) (or (or ?v_105 ?v_110) ?v_117)) (or (or ?v_247 P49) ?v_94)) (or (or ?v_119 P26) P36)) (or (or ?v_89 ?v_120) ?v_121)) (or (or P10 ?v_36) ?v_122)) (or (or ?v_124 ?v_84) ?v_148)) (or (or ?v_157 ?v_53) ?v_189)) (or (or ?v_78 P16) ?v_104)) (or (or ?v_9 ?v_116) ?v_123)) (or (or ?v_100 ?v_44) ?v_93)) (or (or ?v_81 ?v_124) P36)) (or (or P9 ?v_61) ?v_174)) (or (or ?v_51 ?v_245) ?v_58)) (or (or P18 ?v_212) ?v_100)) (or (or P6 ?v_100) ?v_29)) (or (or ?v_121 ?v_110) ?v_126)) (or (or P14 ?v_127) ?v_128)) (or (or P38 ?v_137) P24)) (or (or P43 P23) ?v_130)) (or (or P27 ?v_131) P4)) (or (or ?v_99 P24) ?v_106)) (or (or ?v_98 ?v_132) ?v_115)) (or (or ?v_124 ?v_99) P1)) (or (or P46 ?v_187) ?v_75)) (or (or ?v_107 P10) ?v_102)) (or (or ?v_133 ?v_134) ?v_149)) (or (or P19 ?v_135) ?v_136)) (or (or ?v_115 ?v_236) ?v_137)) (or (or ?v_119 ?v_169) ?v_117)) (or (or ?v_120 ?v_15) ?v_74)) (or (or ?v_99 P12) ?v_195)) (or (or ?v_139 ?v_225) ?v_141)) (or (or ?v_51 ?v_142) ?v_20)) (or (or P33 ?v_143) ?v_144)) (or (or ?v_145 ?v_90) ?v_146)) (or (or P14 ?v_164) P22)) (or (or ?v_53 ?v_136) ?v_180)) (or (or ?v_121 P32) ?v_197)) (or (or ?v_91 ?v_139) ?v_69)) (or (or ?v_125 ?v_147) ?v_121)) (or (or ?v_24 ?v_57) ?v_148)) (or (or ?v_69 ?v_24) ?v_149)) (or (or ?v_116 P34) ?v_252)) (or (or ?v_151 P18) ?v_152)) (or (or ?v_116 ?v_35) ?v_153)) (or (or ?v_154 ?v_155) ?v_55)) (or (or ?v_183 P45) ?v_55)) (or (or ?v_155 ?v_119) ?v_83)) (or (or ?v_30 ?v_156) ?v_159)) (or (or ?v_198 ?v_74) ?v_149)) (or (or ?v_157 ?v_104) ?v_231)) (or (or ?v_194 ?v_172) ?v_158)) (or (or ?v_159 ?v_54) ?v_160)) (or (or ?v_163 ?v_148) ?v_23)) (or (or ?v_161 ?v_1) ?v_159)) (or (or ?v_115 ?v_121) ?v_70)) (or (or ?v_67 ?v_118) ?v_182)) (or (or ?v_100 P19) ?v_218)) (or (or ?v_162 ?v_163) ?v_148)) (or (or P15 ?v_74) ?v_199)) (or (or ?v_93 P34) ?v_204)) (or (or P8 ?v_16) P44)) (or (or ?v_164 ?v_15) ?v_132)) (or (or P1 ?v_74) ?v_96)) (or (or ?v_165 ?v_166) ?v_40)) (or (or ?v_167 ?v_117) ?v_86)) (or (or ?v_1 ?v_209) ?v_83)) (or (or ?v_107 ?v_147) P49)) (or (or ?v_56 P49) ?v_16)) (or (or ?v_113 ?v_168) ?v_178)) (or (or ?v_217 ?v_169) ?v_141)) (or (or ?v_23 ?v_151) ?v_1)) (or (or ?v_126 ?v_184) ?v_171)) (or (or ?v_125 ?v_172) ?v_173)) (or (or ?v_174 ?v_33) ?v_133)) (or (or ?v_25 ?v_78) ?v_120)) (or (or ?v_145 P28) ?v_175)) (or (or ?v_53 ?v_176) P26)) (or (or ?v_115 P22) ?v_51)) (or (or ?v_69 ?v_134) P28)) (or (or ?v_87 ?v_4) ?v_113)) (or (or ?v_112 P43) ?v_4)) (or (or ?v_153 ?v_110) ?v_69)) (or (or ?v_92 ?v_160) ?v_60)) (or (or ?v_7 ?v_69) ?v_4)) (or (or ?v_23 ?v_150) ?v_177)) (or (or P21 ?v_141) ?v_178)) (or (or P7 ?v_83) P8)) (or (or ?v_14 ?v_97) ?v_7)) (or (or ?v_142 ?v_60) P7)) (or (or P25 ?v_112) ?v_43)) (or (or ?v_125 ?v_227) ?v_226)) (or (or ?v_72 ?v_41) P8)) (or (or ?v_179 ?v_159) ?v_0)) (or (or ?v_180 P30) P39)) (or (or ?v_188 ?v_18) ?v_172)) (or (or P14 ?v_182) ?v_26)) (or (or ?v_167 ?v_109) ?v_183)) (or (or ?v_152 ?v_86) ?v_185)) (or (or ?v_184 ?v_124) ?v_164)) (or (or ?v_45 ?v_144) ?v_185)) (or (or ?v_186 ?v_55) ?v_36)) (or (or ?v_187 ?v_188) ?v_73)) (or (or ?v_189 P42) P22)) (or (or ?v_148 P5) ?v_90)) (or (or ?v_35 ?v_190) ?v_82)) (or (or ?v_158 ?v_191) ?v_10)) (or (or P2 ?v_192) ?v_193)) (or (or ?v_103 ?v_194) ?v_62)) (or (or ?v_99 ?v_78) ?v_70)) (or (or ?v_194 ?v_201) ?v_174)) (or (or ?v_83 ?v_87) ?v_137)) (or (or ?v_237 ?v_119) P1)) (or (or ?v_80 ?v_131) ?v_240)) (or (or P6 ?v_196) P5)) (or (or P17 P7) ?v_35)) (or (or ?v_197 ?v_190) ?v_21)) (or (or ?v_74 P43) ?v_55)) (or (or ?v_57 ?v_122) ?v_92)) (or (or ?v_208 P20) ?v_198)) (or (or ?v_110 ?v_174) ?v_184)) (or (or ?v_91 ?v_199) P41)) (or (or ?v_5 ?v_148) P31)) (or (or ?v_146 P17) ?v_86)) (or (or ?v_67 ?v_27) P27)) (or (or ?v_200 ?v_137) ?v_229)) (or (or ?v_46 ?v_24) ?v_201)) (or (or ?v_202 ?v_185) P5)) (or (or ?v_132 ?v_203) ?v_141)) (or (or ?v_161 ?v_204) ?v_188)) (or (or ?v_205 ?v_63) P14)) (or (or ?v_204 ?v_45) ?v_206)) (or (or ?v_207 ?v_53) ?v_208)) (or (or ?v_209 ?v_183) ?v_35)) (or (or ?v_210 ?v_100) ?v_256)) (or (or ?v_19 P47) ?v_243)) (or (or ?v_189 ?v_134) P10)) (or (or P27 ?v_77) ?v_84)) (or (or ?v_211 ?v_34) ?v_189)) (or (or ?v_0 ?v_189) ?v_216)) (or (or ?v_97 P49) ?v_1)) (or (or ?v_212 P15) ?v_169)) (or (or ?v_215 ?v_204) P22)) (or (or ?v_112 P19) ?v_85)) (or (or ?v_96 ?v_188) ?v_150)) (or (or P5 ?v_194) ?v_213)) (or (or ?v_175 ?v_48) ?v_214)) (or (or ?v_242 ?v_1) ?v_54)) (or (or ?v_86 ?v_215) ?v_72)) (or (or ?v_28 ?v_130) P42)) (or (or ?v_30 ?v_37) P0)) (or (or ?v_113 ?v_63) ?v_36)) (or (or ?v_118 ?v_32) ?v_167)) (or (or P30 ?v_178) ?v_216)) (or (or ?v_249 ?v_157) ?v_216)) (or (or ?v_47 ?v_217) ?v_0)) (or (or ?v_211 ?v_110) ?v_116)) (or (or ?v_142 ?v_23) ?v_211)) (or (or P36 ?v_136) ?v_218)) (or (or P2 ?v_183) ?v_18)) (or (or ?v_6 P22) ?v_116)) (or (or ?v_164 ?v_219) P20)) (or (or ?v_171 ?v_115) ?v_163)) (or (or ?v_70 ?v_154) ?v_152)) (or (or ?v_32 ?v_0) ?v_96)) (or (or ?v_159 P27) ?v_31)) (or (or P49 ?v_133) ?v_13)) (or (or P7 ?v_92) ?v_185)) (or (or ?v_168 ?v_220) ?v_32)) (or (or ?v_0 ?v_170) P33)) (or (or P43 ?v_55) P27)) (or (or ?v_67 ?v_101) ?v_126)) (or (or P8 ?v_206) ?v_221)) (or (or ?v_142 ?v_219) ?v_222)) (or (or ?v_223 ?v_60) ?v_155)) (or (or ?v_56 ?v_17) P48)) (or (or ?v_83 P27) ?v_38)) (or (or P40 ?v_161) ?v_188)) (or (or ?v_216 ?v_47) ?v_70)) (or (or ?v_156 ?v_108) ?v_224)) (or (or ?v_67 P7) ?v_80)) (or (or ?v_172 ?v_213) P7)) (or (or ?v_119 ?v_110) P11)) (or (or ?v_155 ?v_132) ?v_172)) (or (or P22 ?v_88) ?v_38)) (or (or ?v_95 ?v_165) P10)) (or (or ?v_87 ?v_27) ?v_186)) (or (or P35 ?v_141) P18)) (or (or P22 P4) ?v_230)) (or (or ?v_121 ?v_183) ?v_180)) (or (or ?v_134 ?v_159) ?v_7)) (or (or ?v_60 P21) ?v_197)) (or (or ?v_1 P28) ?v_226)) (or (or ?v_85 ?v_49) ?v_166)) (or (or ?v_102 ?v_197) ?v_220)) (or (or P36 ?v_221) ?v_162)) (or (or ?v_108 ?v_16) ?v_4)) (or (or ?v_90 P19) P20)) (or (or ?v_49 ?v_219) P13)) (or (or ?v_12 P30) ?v_22)) (or (or ?v_16 ?v_114) ?v_34)) (or (or ?v_227 P9) ?v_172)) (or (or ?v_11 P7) ?v_170)) (or (or ?v_134 ?v_48) ?v_26)) (or (or ?v_83 ?v_232) ?v_15)) (or (or ?v_228 ?v_253) ?v_229)) (or (or P49 ?v_164) ?v_2)) (or (or ?v_48 ?v_81) ?v_137)) (or (or ?v_57 ?v_219) ?v_146)) (or (or ?v_103 P3) ?v_150)) (or (or ?v_109 ?v_32) ?v_50)) (or (or ?v_80 ?v_9) ?v_58)) (or (or ?v_51 ?v_102) ?v_132)) (or (or ?v_213 ?v_230) ?v_5)) (or (or P13 ?v_224) ?v_204)) (or (or ?v_231 ?v_68) ?v_16)) (or (or P14 ?v_206) ?v_210)) (or (or ?v_197 ?v_183) ?v_166)) (or (or ?v_183 ?v_146) ?v_8)) (or (or ?v_2 ?v_11) ?v_22)) (or (or P24 ?v_152) ?v_206)) (or (or ?v_212 ?v_219) ?v_109)) (or (or ?v_94 P7) P11)) (or (or P39 ?v_12) P11)) (or (or ?v_232 ?v_73) ?v_163)) (or (or ?v_16 ?v_89) ?v_227)) (or (or ?v_224 ?v_159) ?v_1)) (or (or ?v_201 ?v_197) ?v_76)) (or (or ?v_196 ?v_70) ?v_12)) (or (or ?v_53 P31) ?v_62)) (or (or ?v_151 ?v_175) ?v_101)) (or (or ?v_132 ?v_18) ?v_163)) (or (or ?v_93 ?v_31) ?v_5)) (or (or ?v_86 ?v_170) ?v_134)) (or (or ?v_180 P49) ?v_233)) (or (or P34 ?v_126) ?v_73)) (or (or ?v_122 ?v_184) ?v_83)) (or (or ?v_143 ?v_89) ?v_210)) (or (or ?v_98 ?v_37) ?v_86)) (or (or P49 ?v_202) ?v_231)) (or (or ?v_171 ?v_113) ?v_208)) (or (or ?v_36 P40) ?v_130)) (or (or ?v_235 ?v_93) ?v_234)) (or (or ?v_235 ?v_107) ?v_32)) (or (or ?v_30 ?v_225) ?v_13)) (or (or ?v_41 ?v_246) ?v_105)) (or (or ?v_54 ?v_122) ?v_26)) (or (or ?v_22 ?v_236) ?v_41)) (or (or P49 ?v_135) ?v_213)) (or (or ?v_22 ?v_196) P47)) (or (or P13 ?v_170) ?v_149)) (or (or ?v_34 ?v_194) ?v_97)) (or (or ?v_183 ?v_114) P23)) (or (or P38 ?v_78) ?v_238)) (or (or ?v_37 ?v_142) ?v_137)) (or (or ?v_1 ?v_18) ?v_221)) (or (or P11 ?v_114) ?v_149)) (or (or ?v_203 ?v_85) ?v_172)) (or (or ?v_107 ?v_115) ?v_209)) (or (or ?v_4 ?v_235) ?v_184)) (or (or ?v_162 ?v_237) ?v_151)) (or (or ?v_19 P10) ?v_48)) (or (or ?v_251 ?v_103) ?v_102)) (or (or P33 P25) P42)) (or (or ?v_123 ?v_233) ?v_6)) (or (or ?v_36 ?v_15) ?v_70)) (or (or ?v_49 ?v_69) P41)) (or (or ?v_17 ?v_209) ?v_88)) (or (or ?v_92 ?v_100) ?v_55)) (or (or P14 ?v_216) P28)) (or (or P43 ?v_179) ?v_27)) (or (or ?v_55 ?v_99) ?v_2)) (or (or ?v_11 ?v_222) ?v_169)) (or (or ?v_174 ?v_238) ?v_169)) (or (or ?v_185 ?v_239) ?v_7)) (or (or ?v_238 ?v_144) ?v_182)) (or (or ?v_77 ?v_132) ?v_134)) (or (or ?v_166 ?v_254) P1)) (or (or ?v_80 ?v_153) ?v_170)) (or (or ?v_240 ?v_118) P2)) (or (or ?v_241 ?v_31) P4)) (or (or P12 ?v_235) ?v_208)) (or (or ?v_242 ?v_64) ?v_186)) (or (or ?v_99 ?v_137) P49)) (or (or ?v_207 ?v_243) ?v_175)) (or (or ?v_104 ?v_179) ?v_32)) (or (or ?v_244 ?v_104) ?v_48)) (or (or ?v_117 ?v_132) ?v_245)) (or (or ?v_148 ?v_67) ?v_7)) (or (or ?v_80 ?v_69) ?v_122)) (or (or ?v_109 P3) ?v_118)) (or (or ?v_123 ?v_102) ?v_46)) (or (or ?v_48 ?v_10) ?v_61)) (or (or ?v_179 ?v_163) ?v_29)) (or (or ?v_204 ?v_214) ?v_168)) (or (or ?v_58 ?v_234) ?v_246)) (or (or P34 P16) ?v_247)) (or (or ?v_109 ?v_94) ?v_48)) (or (or ?v_158 ?v_93) ?v_14)) (or (or ?v_58 ?v_124) ?v_53)) (or (or ?v_10 ?v_173) P33)) (or (or P7 ?v_218) ?v_24)) (or (or P10 ?v_221) ?v_124)) (or (or ?v_174 ?v_187) ?v_40)) (or (or ?v_109 ?v_13) ?v_141)) (or (or P19 ?v_248) ?v_125)) (or (or ?v_182 P22) ?v_24)) (or (or P26 P32) ?v_248)) (or (or ?v_105 P8) ?v_248)) (or (or ?v_32 ?v_32) ?v_229)) (or (or P49 ?v_53) P33)) (or (or ?v_16 ?v_73) ?v_174)) (or (or P11 ?v_74) ?v_41)) (or (or ?v_101 ?v_20) ?v_116)) (or (or ?v_25 ?v_72) ?v_190)) (or (or ?v_162 ?v_219) ?v_10)) (or (or ?v_125 ?v_118) ?v_226)) (or (or ?v_195 ?v_122) ?v_135)) (or (or ?v_199 ?v_7) ?v_43)) (or (or P19 ?v_99) ?v_10)) (or (or ?v_41 ?v_40) ?v_255)) (or (or P26 ?v_47) ?v_241)) (or (or ?v_77 ?v_161) ?v_25)) (or (or ?v_126 ?v_11) ?v_172)) (or (or ?v_85 ?v_215) ?v_12)) (or (or ?v_28 ?v_112) ?v_109)) (or (or ?v_37 ?v_183) ?v_106)) (or (or ?v_48 ?v_84) ?v_63)) (or (or P49 ?v_115) ?v_154)) (or (or P35 ?v_174) ?v_217)) (or (or P44 P30) ?v_188)) (or (or ?v_191 P16) ?v_96)) (or (or ?v_245 ?v_75) ?v_133)) (or (or ?v_72 ?v_173) P3)) (or (or ?v_160 ?v_54) ?v_114)) (or (or ?v_188 ?v_115) P24)) (or (or P33 ?v_205) ?v_219)) (or (or ?v_142 ?v_13) ?v_245)) (or (or ?v_9 ?v_163) ?v_249)) (or (or ?v_189 ?v_128) ?v_100)) (or (or P37 ?v_63) ?v_234)) (or (or ?v_68 ?v_41) ?v_222)) (or (or ?v_6 ?v_244) ?v_168)) (or (or ?v_145 P25) ?v_126)) (or (or ?v_63 P37) ?v_93)) (or (or ?v_13 ?v_106) ?v_78)) (or (or ?v_119 P49) ?v_250)) (or (or ?v_248 ?v_240) P31)) (or (or ?v_176 ?v_150) ?v_162)) (or (or ?v_26 ?v_220) P16)) (or (or ?v_5 ?v_166) ?v_76)) (or (or ?v_114 ?v_239) ?v_214)) (or (or ?v_68 ?v_131) ?v_251)) (or (or ?v_19 ?v_215) ?v_33)) (or (or ?v_205 ?v_94) ?v_56)) (or (or ?v_21 ?v_37) ?v_203)) (or (or ?v_101 ?v_37) ?v_93)) (or (or ?v_56 P36) ?v_57)) (or (or ?v_252 P43) ?v_50)) (or (or ?v_187 ?v_39) ?v_90)) (or (or ?v_234 ?v_230) ?v_91)) (or (or ?v_169 ?v_170) ?v_9)) (or (or ?v_153 ?v_70) P22)) (or (or ?v_18 ?v_62) P22)) (or (or ?v_65 ?v_112) ?v_0)) (or (or P40 ?v_225) ?v_253)) (or (or P16 ?v_158) ?v_126)) (or (or ?v_192 ?v_244) ?v_152)) (or (or ?v_173 ?v_142) ?v_235)) (or (or ?v_191 ?v_16) ?v_132)) (or (or ?v_14 ?v_192) ?v_210)) (or (or ?v_67 ?v_150) ?v_208)) (or (or ?v_10 ?v_194) ?v_7)) (or (or ?v_247 ?v_0) ?v_39)) (or (or ?v_2 ?v_112) P44)) (or (or ?v_223 P11) P47)) (or (or P1 ?v_86) ?v_143)) (or (or ?v_46 ?v_254) P6)) (or (or ?v_92 ?v_22) ?v_224)) (or (or P1 P22) ?v_225)) (or (or P16 P22) ?v_213)) (or (or ?v_107 ?v_189) ?v_236)) (or (or P30 ?v_165) ?v_154)) (or (or ?v_249 ?v_116) ?v_174)) (or (or ?v_239 ?v_113) ?v_176)) (or (or P20 ?v_243) ?v_45)) (or (or ?v_68 P15) ?v_82)) (or (or ?v_60 ?v_86) ?v_90)) (or (or ?v_16 ?v_88) P11)) (or (or ?v_63 ?v_250) ?v_12)) (or (or P11 ?v_135) P10)) (or (or ?v_95 ?v_254) ?v_233)) (or (or ?v_8 ?v_116) P7)) (or (or ?v_27 P9) ?v_184)) (or (or ?v_192 ?v_76) ?v_130)) (or (or ?v_251 ?v_52) ?v_70)) (or (or P49 ?v_234) ?v_248)) (or (or P7 ?v_87) P19)) (or (or P28 ?v_159) ?v_119)) (or (or ?v_178 ?v_88) ?v_53)) (or (or ?v_67 ?v_183) P49)) (or (or ?v_247 P20) P9)) (or (or ?v_201 ?v_193) ?v_132)) (or (or P22 ?v_241) ?v_56)) (or (or ?v_249 ?v_174) P47)) (or (or ?v_255 ?v_253) P18)) (or (or ?v_22 ?v_33) ?v_137)) (or (or ?v_22 ?v_60) P48)) (or (or P32 ?v_145) ?v_221)) (or (or ?v_108 ?v_113) ?v_94)) (or (or ?v_189 ?v_197) ?v_123)) (or (or ?v_91 ?v_108) ?v_11)) (or (or ?v_205 ?v_22) ?v_75)) (or (or ?v_62 ?v_217) ?v_161)) (or (or ?v_235 ?v_153) P2)) (or (or ?v_245 ?v_247) P43)) (or (or P15 P30) ?v_171)) (or (or ?v_147 ?v_55) ?v_218)) (or (or ?v_17 ?v_14) ?v_101)) (or (or ?v_61 ?v_215) ?v_241)) (or (or ?v_105 ?v_252) ?v_48)) (or (or ?v_165 ?v_187) ?v_211)) (or (or ?v_130 ?v_9) ?v_97)) (or (or ?v_179 ?v_31) ?v_61)) (or (or ?v_47 ?v_256) ?v_50)) (or (or P21 ?v_238) ?v_37)) (or (or ?v_116 ?v_8) P46)) (or (or P39 ?v_120) ?v_116)) (or (or P31 ?v_216) ?v_207)) (or (or ?v_47 ?v_68) ?v_24)) (or (or P21 P45) ?v_102)) (or (or ?v_67 ?v_23) ?v_56)) (or (or ?v_213 ?v_243) P46)) (or (or ?v_229 ?v_207) P38)) (or (or ?v_229 ?v_89) ?v_143)) (or (or ?v_14 ?v_48) ?v_95)) (or (or ?v_91 ?v_36) ?v_185)) (or (or P16 ?v_243) ?v_165)) (or (or ?v_199 ?v_206) ?v_186)) (or (or P7 ?v_223) ?v_188)) (or (or ?v_115 ?v_151) ?v_28)) (or (or ?v_156 ?v_5) ?v_239)) (or (or ?v_156 ?v_256) ?v_57)) (or (or ?v_119 P34) P39)) (or (or ?v_18 ?v_251) ?v_81)) (or (or ?v_220 ?v_9) ?v_12)) (or (or ?v_215 ?v_19) ?v_233)) (or (or ?v_161 ?v_183) ?v_16)) (or (or ?v_159 P44) ?v_197)) (or (or ?v_80 ?v_141) ?v_168)) (or (or ?v_12 ?v_14) ?v_246)) (or (or ?v_194 (not ?v_232)) ?v_215)) (or (or ?v_68 ?v_195) ?v_149)) (or (or ?v_201 ?v_174) ?v_65)) (or (or ?v_161 ?v_220) ?v_134)) (or (or ?v_188 ?v_136) ?v_197)) (or (or ?v_2 ?v_98) ?v_211)) (or (or ?v_49 P24) ?v_76)) (or (or ?v_124 P19) ?v_250)) (or (or ?v_8 ?v_94) ?v_158)) (or (or ?v_94 ?v_74) ?v_52)) (or (or ?v_101 ?v_89) ?v_193)) (or (or ?v_96 ?v_78) P10)) (or (or ?v_32 ?v_146) ?v_248)) (or (or ?v_37 ?v_136) P45)) (or (or ?v_168 ?v_125) ?v_4)) (or (or ?v_150 ?v_136) (not ?v_124))) (or (or ?v_205 ?v_122) ?v_14)) (or (or ?v_80 P31) ?v_132)) (or (or ?v_201 ?v_178) ?v_13)) (or (or ?v_148 ?v_126) ?v_147)) (or (or ?v_75 ?v_157) ?v_142)) (or (or ?v_195 ?v_105) P38)) (or (or ?v_31 P39) ?v_186)) (or (or ?v_11 ?v_239) ?v_251)) (or (or ?v_202 ?v_153) ?v_49)) (or (or ?v_89 ?v_193) ?v_197)) (or (or ?v_56 P9) ?v_151)) (or (or ?v_122 ?v_145) P34)) (or (or ?v_143 ?v_28) ?v_39)) (or (or ?v_218 ?v_135) ?v_178)) (or (or ?v_82 P23) ?v_57)) (or (or P47 ?v_24) P21))))))))))))))))))))))))))))))))))))
(check-sat)
(exit)
